p edge 100 507
e 1 13
e 1 28
e 1 35
e 1 47
e 1 58
e 1 62
e 1 97
e 2 6
e 2 9
e 2 11
e 2 28
e 2 33
e 2 50
e 2 68
e 2 73
e 2 77
e 2 78
e 2 84
e 2 86
e 2 96
e 3 6
e 3 31
e 3 39
e 3 59
e 3 60
e 3 78
e 3 97
e 3 98
e 4 20
e 4 26
e 4 45
e 4 52
e 4 69
e 4 70
e 4 95
e 5 10
e 5 45
e 5 54
e 5 56
e 5 66
e 5 85
e 5 100
e 6 15
e 6 24
e 6 35
e 6 56
e 6 63
e 6 86
e 6 100
e 7 14
e 7 18
e 7 32
e 7 43
e 7 46
e 7 47
e 7 53
e 7 66
e 7 70
e 7 71
e 8 14
e 8 22
e 8 36
e 8 40
e 8 54
e 8 69
e 8 82
e 9 12
e 9 17
e 9 23
e 9 34
e 9 38
e 9 45
e 9 56
e 9 84
e 9 95
e 9 100
e 10 15
e 10 17
e 10 25
e 10 33
e 10 35
e 10 42
e 10 50
e 10 54
e 10 60
e 10 74
e 10 86
e 10 90
e 10 97
e 11 15
e 11 21
e 11 22
e 11 33
e 11 38
e 11 50
e 11 59
e 11 60
e 11 61
e 11 74
e 11 90
e 12 13
e 12 28
e 12 29
e 12 31
e 12 38
e 12 43
e 12 52
e 12 54
e 12 55
e 12 56
e 12 68
e 12 71
e 12 85
e 13 15
e 13 25
e 13 31
e 13 37
e 13 53
e 13 84
e 13 88
e 13 100
e 14 37
e 14 50
e 14 61
e 14 62
e 14 64
e 14 69
e 14 86
e 14 89
e 14 97
e 15 16
e 15 33
e 15 40
e 15 42
e 15 52
e 15 90
e 15 91
e 15 93
e 16 23
e 16 27
e 16 37
e 16 40
e 16 43
e 16 44
e 16 46
e 16 50
e 16 57
e 16 74
e 16 82
e 16 89
e 16 90
e 16 94
e 17 18
e 17 40
e 17 42
e 17 51
e 17 56
e 17 60
e 17 63
e 17 64
e 17 76
e 18 20
e 18 23
e 18 43
e 18 52
e 18 65
e 18 69
e 18 72
e 18 74
e 18 86
e 18 93
e 18 99
e 19 20
e 19 25
e 19 34
e 19 36
e 19 49
e 19 50
e 19 67
e 19 92
e 19 100
e 20 22
e 20 26
e 20 38
e 20 40
e 20 45
e 20 61
e 20 64
e 20 68
e 20 69
e 20 70
e 20 71
e 20 81
e 20 94
e 21 48
e 21 58
e 21 76
e 21 77
e 21 79
e 21 95
e 22 34
e 22 46
e 22 49
e 22 51
e 22 66
e 22 75
e 22 83
e 22 100
e 23 24
e 23 25
e 23 26
e 23 27
e 23 48
e 23 82
e 23 95
e 23 96
e 23 98
e 24 26
e 24 31
e 24 37
e 24 48
e 24 49
e 24 62
e 24 70
e 24 74
e 24 75
e 24 79
e 24 83
e 24 84
e 24 97
e 24 99
e 25 61
e 25 67
e 25 71
e 25 78
e 26 35
e 26 37
e 26 47
e 27 33
e 27 42
e 27 49
e 27 78
e 27 79
e 27 92
e 27 99
e 28 48
e 28 54
e 28 56
e 28 62
e 28 66
e 28 81
e 28 93
e 29 31
e 29 49
e 29 61
e 29 78
e 29 81
e 29 85
e 30 36
e 30 41
e 30 43
e 30 74
e 30 94
e 30 97
e 31 33
e 31 41
e 31 43
e 31 50
e 31 57
e 31 61
e 31 78
e 31 86
e 31 88
e 31 89
e 32 34
e 32 45
e 32 46
e 32 66
e 32 68
e 32 70
e 32 95
e 33 36
e 33 37
e 33 39
e 33 50
e 33 51
e 33 53
e 33 59
e 33 71
e 33 76
e 33 90
e 34 54
e 34 55
e 34 78
e 34 92
e 34 100
e 35 42
e 35 61
e 35 63
e 35 64
e 35 68
e 35 82
e 35 86
e 35 91
e 35 94
e 35 97
e 36 37
e 36 51
e 36 55
e 36 62
e 36 68
e 36 85
e 37 39
e 37 51
e 37 53
e 37 59
e 37 63
e 37 69
e 37 89
e 38 41
e 38 59
e 38 66
e 38 69
e 38 70
e 38 81
e 38 86
e 38 97
e 39 45
e 39 46
e 39 83
e 39 99
e 40 64
e 40 65
e 40 74
e 40 75
e 40 83
e 41 46
e 41 50
e 41 65
e 41 69
e 41 79
e 41 80
e 41 86
e 42 45
e 42 64
e 42 83
e 42 88
e 43 49
e 43 51
e 43 66
e 43 68
e 43 71
e 43 77
e 43 79
e 43 82
e 43 86
e 43 87
e 43 88
e 44 47
e 44 53
e 44 55
e 44 57
e 44 60
e 44 64
e 44 89
e 45 48
e 45 53
e 45 56
e 45 59
e 45 69
e 45 81
e 45 86
e 45 96
e 45 97
e 45 98
e 46 49
e 46 64
e 46 73
e 46 86
e 47 48
e 47 60
e 47 72
e 47 97
e 48 51
e 48 68
e 48 72
e 48 80
e 49 71
e 50 52
e 50 71
e 50 88
e 51 71
e 51 77
e 51 81
e 51 88
e 51 89
e 51 92
e 51 99
e 52 60
e 52 67
e 52 68
e 52 72
e 52 83
e 52 100
e 53 66
e 53 82
e 53 83
e 54 64
e 54 77
e 54 81
e 54 84
e 54 86
e 54 87
e 54 91
e 54 93
e 55 59
e 56 71
e 56 72
e 56 75
e 56 89
e 57 71
e 57 72
e 58 61
e 58 72
e 58 89
e 58 90
e 59 66
e 59 67
e 59 77
e 59 90
e 60 70
e 60 73
e 60 82
e 60 92
e 60 100
e 61 66
e 61 73
e 61 84
e 61 89
e 62 74
e 62 77
e 62 86
e 62 88
e 62 93
e 63 70
e 63 78
e 63 100
e 64 68
e 64 72
e 64 83
e 65 87
e 65 95
e 65 96
e 66 90
e 67 88
e 67 100
e 68 86
e 68 91
e 68 92
e 69 77
e 69 85
e 69 100
e 70 94
e 71 78
e 71 92
e 72 80
e 72 84
e 72 85
e 72 86
e 72 92
e 74 76
e 74 83
e 74 87
e 74 95
e 75 86
e 75 92
e 77 90
e 77 95
e 77 100
e 78 85
e 78 90
e 78 96
e 78 99
e 79 93
e 80 91
e 80 98
e 81 82
e 82 87
e 83 86
e 83 97
e 84 86
e 84 98
e 85 99
e 86 92
e 87 96
e 87 97
e 88 89
e 88 90
e 89 97
e 90 96
e 90 98
e 91 93
e 91 97
e 92 93
e 92 98
e 95 98
e 98 99
